p cnf 80 172
c 11 select(1,9)
c 12 nots(1,9)
c 13 select(1,3)
c 14 nots(1,3)
c 15 select(1,4)
c 16 nots(1,4)
c 17 reach(4)
c 18 reach(3)
c 19 reach(9)
c 20 select(9,1)
c 21 nots(9,1)
c 22 select(3,1)
c 23 nots(3,1)
c 24 select(4,1)
c 25 nots(4,1)
c 26 select(4,2)
c 27 nots(4,2)
c 28 select(3,7)
c 29 nots(3,7)
c 30 reach(7)
c 31 reach(2)
c 32 select(7,3)
c 33 nots(7,3)
c 34 select(2,4)
c 35 nots(2,4)
c 36 select(2,6)
c 37 nots(2,6)
c 38 reach(6)
c 39 select(6,2)
c 40 nots(6,2)
c 41 select(6,5)
c 42 nots(6,5)
c 43 reach(5)
c 44 select(5,8)
c 45 nots(5,8)
c 46 select(5,6)
c 47 nots(5,6)
c 48 reach(8)
c 49 select(8,5)
c 50 nots(8,5)
c 61 edge(1,9)
c 62 edge(1,3)
c 63 edge(1,4)
c 64 edge(2,4)
c 65 edge(2,6)
c 66 edge(3,7)
c 67 edge(5,8)
c 68 edge(5,6)
c 69 reach(1)
c 70 goal(9)
11 12 0
-11 -12 0
13 14 0
-13 -14 0
15 16 0
-15 -16 0
71 -15 0
-71 15 0
72 -13 0
-72 13 0
19 -11 0
-19 11 0
20 -19 21 0
-20 19 0
-20 -21 0
22 -18 23 0
-22 18 0
-22 -23 0
24 -17 25 0
-24 17 0
-24 -25 0
26 -17 27 0
-26 17 0
-26 -27 0
28 -18 29 0
-28 18 0
-28 -29 0
30 -28 0
-30 28 0
73 -26 0
-73 26 0
32 -30 33 0
-32 30 0
-32 -33 0
34 -31 35 0
-34 31 0
-34 -35 0
36 -31 37 0
-36 31 0
-36 -37 0
74 -36 0
-74 36 0
75 -34 0
-75 34 0
76 -32 0
-76 32 0
39 -38 40 0
-39 38 0
-39 -40 0
41 -38 42 0
-41 38 0
-41 -42 0
77 -41 0
-77 41 0
78 -39 0
-78 39 0
44 -43 45 0
-44 43 0
-44 -45 0
46 -43 47 0
-46 43 0
-46 -47 0
79 -46 0
-79 46 0
48 -44 0
-48 44 0
49 -48 50 0
-49 48 0
-49 -50 0
80 -49 0
-80 49 0
21 -19 20 0
-21 19 0
-21 -20 0
23 -18 22 0
-23 18 0
-23 -22 0
25 -17 24 0
-25 17 0
-25 -24 0
27 -17 26 0
-27 17 0
-27 -26 0
40 -38 39 0
-40 38 0
-40 -39 0
33 -30 32 0
-33 30 0
-33 -32 0
50 -48 49 0
-50 48 0
-50 -49 0
42 -38 41 0
-42 38 0
-42 -41 0
12 11 0
-12 -11 0
14 13 0
-14 -13 0
16 15 0
-16 -15 0
35 -31 34 0
-35 31 0
-35 -34 0
37 -31 36 0
-37 31 0
-37 -36 0
29 -18 28 0
-29 18 0
-29 -28 0
45 -43 44 0
-45 43 0
-45 -44 0
47 -43 46 0
-47 43 0
-47 -46 0
52 -20 0
-52 20 0
19 0
-52 0
-11 -13 0
-11 -15 0
-15 -13 0
-26 -24 -17 0
-28 -22 -18 0
-36 -34 -31 0
-41 -39 -38 0
-44 -46 -43 0
61 0
62 0
63 0
64 0
65 0
66 0
67 0
68 0
69 0
70 0
-1 0
-2 0
-3 0
-4 0
-5 0
-6 0
-7 0
-8 0
-9 0
-10 0
-17 71 75 0
17 -71 0
17 -75 0
-18 72 76 0
18 -72 0
18 -76 0
-31 73 78 0
31 -73 0
31 -78 0
-38 74 79 0
38 -74 0
38 -79 0
-43 77 80 0
43 -77 0
43 -80 0
-51 0
-53 0
-54 0
-55 0
-56 0
-57 0
-58 0
-59 0
-60 0
